c Random generated cnf formula, satisfiable: false
p cnf 10 50
-7 5 8 0
-9 7 3 0
4 8 -6 0
-5 -8 -3 0
-5 9 6 0
7 -1 5 0
-7 2 -5 0
-9 -4 -5 0
7 -2 9 0
-4 -10 -2 0
3 -6 7 0
-2 -3 1 0
10 4 -7 0
4 3 5 0
8 -3 -5 0
-9 4 -5 0
-8 -4 3 0
8 7 -10 0
-1 8 -10 0
-3 7 5 0
6 -5 -10 0
-9 -4 -3 0
8 3 10 0
2 5 4 0
-4 9 -2 0
-9 8 2 0
6 1 -5 0
4 -3 -6 0
-1 10 4 0
2 1 -6 0
-6 -8 -2 0
4 -6 5 0
1 3 -7 0
-5 7 9 0
-7 2 -4 0
4 5 -10 0
-9 -3 -7 0
3 10 -8 0
5 7 -9 0
-8 1 -5 0
10 1 -6 0
-2 4 -1 0
-9 -7 -10 0
8 -1 -2 0
4 1 -5 0
3 7 2 0
-6 -5 -4 0
-2 6 -7 0
4 10 6 0
9 -8 5 0
